% demand
num_movements = 30;
loading_factor = [1350, 800, 1650, 800, 1500, 900, 1100, 850, 1700, 900, 1600, 1500, 1200, 800, 1000, 1600, 1250, 800, 1750, 850, 1250, 1800, 850, 1050, 950, 850, 1700, 1200, 1350, 1100];
pickup_time = [0, 0, 0, 0, 0, 0, 1, 1, 2, 2, 2, 2, 3, 3, 3, 6, 6, 6, 6, 7, 8, 8, 8, 9, 9, 9, 10, 10, 10, 10];
delivery_time = [1, 2, 2, 1, 1, 1, 2, 2, 3, 6, 5, 7, 5, 5, 5, 8, 7, 7, 8, 8, 10, 10, 10, 10, 11, 10, 11, 11, 11, 11];

% transporter definition
total_capacity = 7000;
num_decks = 3;
capacity = [3000, 1000, 3000];

% ways out of decks
num_ways_out = 1;
paths_out = array3d(decks, ways_out, decks, [
% ways out of deck d1
2, 3, 0, 

% ways out of deck d2
3, 0, 0, 

% ways out of deck d3
0, 0, 0,	

]);

